********************************************************************************
Probe Values Report, written on Fri Sep 13 11:05:08 2019

Source
-------

   ODB: E:/Dropbox/Research/Source/Abaqus-J-integral/Example 2/odb/CT-3D-Fine-mesh_copy.odb
   Step: load
   Frame: Increment     10: Step Time =    1.000
   Variable: S, Mises (Not averaged)

Loc 1 : Integration point values

Probe values reported at integration points

  Part Instance  Element ID        Type  Attached nodes
--------------------------------------------------------------------------------
  SPECIMEN-1        1081       C3D20         337        6403       17391        1894         338        6395       17079        1855       66100       66099       66098       66097       64921       64920       64919       64918       66102       66101       66103       66104


  Part Instance  Element ID        Type   Int. Pt.   S, Mises
--------------------------------------------------------------------------------
  SPECIMEN-1        1081       C3D20          1    50.E+03
  SPECIMEN-1        1081       C3D20          2    50.E+03
  SPECIMEN-1        1081       C3D20          3    50.E+03
  SPECIMEN-1        1081       C3D20          4    48.E+03
  SPECIMEN-1        1081       C3D20          5    48.E+03
  SPECIMEN-1        1081       C3D20          6    48.E+03
  SPECIMEN-1        1081       C3D20          7    46.E+03
  SPECIMEN-1        1081       C3D20          8    46.E+03
  SPECIMEN-1        1081       C3D20          9    46.E+03
  SPECIMEN-1        1081       C3D20         10    50.E+03
  SPECIMEN-1        1081       C3D20         11    50.E+03
  SPECIMEN-1        1081       C3D20         12    50.E+03
  SPECIMEN-1        1081       C3D20         13    48.E+03
  SPECIMEN-1        1081       C3D20         14    48.E+03
  SPECIMEN-1        1081       C3D20         15    48.E+03
  SPECIMEN-1        1081       C3D20         16    46.E+03
  SPECIMEN-1        1081       C3D20         17    46.E+03
  SPECIMEN-1        1081       C3D20         18    46.E+03
  SPECIMEN-1        1081       C3D20         19    50.E+03
  SPECIMEN-1        1081       C3D20         20    50.E+03
  SPECIMEN-1        1081       C3D20         21    50.E+03
  SPECIMEN-1        1081       C3D20         22    48.E+03
  SPECIMEN-1        1081       C3D20         23    48.E+03
  SPECIMEN-1        1081       C3D20         24    48.E+03
  SPECIMEN-1        1081       C3D20         25    46.E+03
  SPECIMEN-1        1081       C3D20         26    46.E+03
  SPECIMEN-1        1081       C3D20         27    46.E+03


